networks/zoo_176_6806/zoo_176_6806-lower.txt
Number of groups: 83
Flow 1: {1 2 0} {2 95 0} 
Flow 2: {2 50 0} {50 49 0} {45 44 0} {44 5 0} {5 4 0} {4 3 0} {3 96 0} 
Flow 3: {4 97 0} 
Flow 3: {49 39 0} {39 45 0} Flow 4: {5 98 0} 
Flow 5: {5 6 0} {6 99 0} 
Flow 6: {50 7 0} {7 100 0} 
Flow 7: {49 12 0} {12 8 0} {8 101 0} 
Flow 8: {50 9 0} {9 102 0} 
Flow 9: {49 46 0} {46 11 0} {11 10 0} {10 103 0} 
Flow 10: {11 104 0} 
Flow 11: {12 105 0} 
Flow 12: {11 13 0} {13 106 0} 
Flow 13: {24 14 0} {14 107 0} 
Flow 13: {50 52 0} Flow 14: {52 42 0} {42 15 0} {15 108 0} 
Flow 15: {21 20 0} {20 16 0} {16 109 0} 
Flow 16: {16 17 0} {17 110 0} 
Flow 16: {50 21 0} Flow 17: {16 18 0} {18 111 0} 
Flow 18: {23 19 0} {19 112 0} 
Flow 18: {21 23 0} Flow 19: {20 113 0} 
Flow 20: {21 114 0} 
Flow 21: {17 22 0} {22 115 0} 
Flow 22: {23 116 0} 
Flow 23: {57 24 0} {24 117 0} 
Flow 23: {59 27 0} {27 57 0} {52 51 0} {51 29 0} {29 59 0} Flow 24: {24 25 0} {25 118 0} 
Flow 25: {24 26 0} {26 119 0} 
Flow 26: {27 120 0} 
Flow 27: {51 28 0} {28 121 0} 
Flow 28: {29 122 0} 
Flow 29: {12 30 0} {30 123 0} 
Flow 30: {14 31 0} {31 124 0} 
Flow 31: {14 68 0} {68 33 0} {33 32 0} {32 125 0} 
Flow 32: {33 126 0} 
Flow 33: {24 34 0} {34 127 0} 
Flow 34: {27 58 0} {58 35 0} {35 128 0} 
Flow 35: {53 36 0} {36 129 0} 
Flow 35: {51 53 0} Flow 36: {29 37 0} {37 130 0} 
Flow 37: {49 38 0} {38 131 0} 
Flow 38: {39 132 0} 
Flow 39: {39 41 0} {41 40 0} {40 133 0} 
Flow 40: {41 134 0} 
Flow 41: {42 135 0} 
Flow 42: {38 43 0} {43 136 0} 
Flow 43: {44 137 0} 
Flow 44: {45 138 0} 
Flow 45: {46 139 0} 
Flow 46: {46 47 0} {47 140 0} 
Flow 47: {61 48 0} {48 141 0} 
Flow 47: {51 61 0} Flow 48: {49 142 0} 
Flow 49: {50 143 0} 
Flow 50: {51 144 0} 
Flow 51: {52 145 0} 
Flow 52: {53 146 0} 
Flow 53: {37 54 0} {54 147 0} 
Flow 54: {51 55 0} {55 148 0} 
Flow 55: {36 56 0} {56 149 0} 
Flow 56: {57 150 0} 
Flow 57: {58 151 0} 
Flow 58: {59 152 0} 
Flow 59: {27 60 0} {60 153 0} 
Flow 60: {61 154 0} 
Flow 61: {27 62 0} {62 155 0} 
Flow 62: {61 63 0} {63 156 0} 
Flow 63: {3 64 0} {64 157 0} 
Flow 64: {5 70 0} {70 71 0} {71 65 0} {65 158 0} 
Flow 65: {18 75 0} {75 74 0} {81 66 0} {66 159 0} 
Flow 65: {74 78 0} Flow 66: {81 67 0} {67 160 0} 
Flow 66: {78 81 0} Flow 67: {68 161 0} 
Flow 68: {25 69 0} {69 162 0} 
Flow 69: {70 163 0} 
Flow 70: {71 164 0} 
Flow 71: {71 72 0} {72 165 0} 
Flow 72: {71 73 0} {73 166 0} 
Flow 73: {74 167 0} 
Flow 74: {75 168 0} 
Flow 75: {22 79 0} {79 80 0} {80 76 0} {76 169 0} 
Flow 76: {77 170 0} 
Flow 77: {78 171 0} 
Flow 78: {79 172 0} 
Flow 79: {80 173 0} 
Flow 80: {81 174 0} 
Flow 81: {81 82 0} {82 175 0} 
Flow 82: {78 83 0} {83 176 0} 
Flow 83: {2 1 0} {1 94 0} 
Flow 158: {78 77 0} Flow 165: {3 4 0} {4 5 0} {5 44 0} {44 45 0} {49 50 0} {50 2 0} Flow 166: {45 39 0} {39 49 0} Flow 169: {3 6 0} Flow 173: {5 13 0} {13 10 0} Flow 174: {13 11 0} Flow 177: {64 65 0} {65 71 0} {72 66 0} {66 81 0} Flow 181: {81 78 0} {78 74 0} {74 75 0} {75 18 0} Flow 185: {77 76 0} {76 80 0} {80 79 0} {79 22 0} Flow 187: {76 24 0} Flow 190: {49 52 0} Flow 198: {24 35 0} Flow 209: {11 46 0} Flow 221: {35 58 0} Flow 230: {73 67 0} Flow 411: {6 5 0} Flow 413: {6 3 0} Flow 493: {7 50 0} Flow 575: {8 12 0} {12 49 0} Flow 657: {9 50 0} Flow 739: {10 11 0} {46 49 0} Flow 741: {10 13 0} {13 5 0} Flow 776: {46 41 0} {41 39 0} Flow 977: {24 76 0} Flow 1067: {14 24 0} {24 57 0} {52 50 0} Flow 1068: {57 27 0} {27 59 0} {59 29 0} {29 51 0} {51 52 0} Flow 1069: {65 64 0} {64 3 0} {66 72 0} {72 71 0} Flow 1070: {71 70 0} {70 5 0} {76 77 0} {77 78 0} Flow 1076: {52 49 0} Flow 1080: {51 15 0} Flow 1081: {22 17 0} {17 16 0} Flow 1084: {18 19 0} Flow 1085: {16 20 0} Flow 1086: {20 21 0} Flow 1088: {19 23 0} Flow 1101: {37 36 0} Flow 1107: {15 42 0} Flow 1134: {68 69 0} Flow 1138: {67 73 0} Flow 1149: {15 51 0} Flow 1232: {21 50 0} Flow 1395: {18 16 0} Flow 1477: {23 21 0} Flow 1490: {19 18 0} Flow 1969: {25 24 0} Flow 1999: {69 68 0} Flow 2051: {26 24 0} Flow 2215: {28 51 0} Flow 2379: {30 12 0} Flow 2461: {31 14 0} Flow 2543: {32 33 0} {33 68 0} {68 14 0} Flow 2567: {69 25 0} Flow 2707: {34 24 0} Flow 2789: {58 27 0} Flow 2791: {35 24 0} Flow 2871: {36 53 0} {53 51 0} Flow 2884: {36 37 0} {37 29 0} Flow 3035: {38 49 0} Flow 3126: {41 46 0} Flow 3199: {40 41 0} Flow 3363: {42 52 0} Flow 3445: {43 38 0} Flow 3773: {47 46 0} Flow 3855: {48 61 0} {61 51 0} Flow 3908: {48 55 0} Flow 4347: {54 37 0} Flow 4429: {55 51 0} Flow 4476: {55 48 0} Flow 4511: {56 36 0} Flow 4839: {60 27 0} Flow 5003: {62 27 0} Flow 5085: {63 61 0} Flow 5413: {67 81 0} Flow 5415: {73 71 0} Flow 6643: {82 81 0} Flow 6724: {82 83 0} Flow 6725: {83 78 0} Flow 6806: {83 82 0} Time taken running everything: 0 seconds
