networks/zoo_176_6806/zoo_176_6806-lower.sol
<?xml version = "1.0" encoding="UTF-8" standalone="yes"?>
<CPLEXSolution version="1.2">
 <header
   problemName="networks/zoo_176_6806/zoo_176_6806-lower.lp"
   solutionName="incumbent"
   solutionIndex="-1"
   objectiveValue="83"
   solutionTypeValue="3"
   solutionTypeString="primal"
   solutionStatusValue="101"
   solutionStatusString="integer optimal solution"
   solutionMethodString="mip"
   primalFeasible="1"
   dualFeasible="1"
   MIPNodes="0"
   MIPIterations="0"
   writeLevel="3"/>
 <quality
   epInt="1.0000000000000001e-05"
   epRHS="9.9999999999999995e-07"
   maxIntInfeas="0"
   maxPrimalInfeas="0"
   maxX="1"
   maxSlack="1"/>
 <variables>
  <variable name="Y(1,2)" index="1" value="1"/>
  <variable name="Y(2,3)" index="168" value="1"/>
  <variable name="Y(3,4)" index="335" value="1"/>
  <variable name="Y(4,5)" index="502" value="1"/>
  <variable name="Y(5,6)" index="669" value="1"/>
  <variable name="Y(6,7)" index="836" value="1"/>
  <variable name="Y(7,8)" index="1003" value="1"/>
  <variable name="Y(8,9)" index="1170" value="1"/>
  <variable name="Y(9,10)" index="1337" value="1"/>
  <variable name="Y(10,11)" index="1504" value="1"/>
  <variable name="Y(11,12)" index="1671" value="1"/>
  <variable name="Y(12,13)" index="1838" value="1"/>
  <variable name="Y(13,14)" index="2005" value="1"/>
  <variable name="Y(14,15)" index="2172" value="1"/>
  <variable name="Y(15,16)" index="2339" value="1"/>
  <variable name="Y(16,17)" index="2506" value="1"/>
  <variable name="Y(17,18)" index="2673" value="1"/>
  <variable name="Y(18,19)" index="2840" value="1"/>
  <variable name="Y(19,20)" index="3007" value="1"/>
  <variable name="Y(20,21)" index="3174" value="1"/>
  <variable name="Y(21,22)" index="3341" value="1"/>
  <variable name="Y(22,23)" index="3508" value="1"/>
  <variable name="Y(23,24)" index="3675" value="1"/>
  <variable name="Y(24,25)" index="3842" value="1"/>
  <variable name="Y(25,26)" index="4009" value="1"/>
  <variable name="Y(26,27)" index="4176" value="1"/>
  <variable name="Y(27,28)" index="4343" value="1"/>
  <variable name="Y(28,29)" index="4510" value="1"/>
  <variable name="Y(29,30)" index="4677" value="1"/>
  <variable name="Y(30,31)" index="4844" value="1"/>
  <variable name="Y(31,32)" index="5011" value="1"/>
  <variable name="Y(32,33)" index="5178" value="1"/>
  <variable name="Y(33,34)" index="5345" value="1"/>
  <variable name="Y(34,35)" index="5512" value="1"/>
  <variable name="Y(35,36)" index="5679" value="1"/>
  <variable name="Y(36,37)" index="5846" value="1"/>
  <variable name="Y(37,38)" index="6013" value="1"/>
  <variable name="Y(38,39)" index="6180" value="1"/>
  <variable name="Y(39,40)" index="6347" value="1"/>
  <variable name="Y(40,41)" index="6514" value="1"/>
  <variable name="Y(41,42)" index="6681" value="1"/>
  <variable name="Y(42,43)" index="6848" value="1"/>
  <variable name="Y(43,44)" index="7015" value="1"/>
  <variable name="Y(44,45)" index="7182" value="1"/>
  <variable name="Y(45,46)" index="7349" value="1"/>
  <variable name="Y(46,47)" index="7516" value="1"/>
  <variable name="Y(47,48)" index="7683" value="1"/>
  <variable name="Y(48,49)" index="7850" value="1"/>
  <variable name="Y(49,50)" index="8017" value="1"/>
  <variable name="Y(50,51)" index="8184" value="1"/>
  <variable name="Y(51,52)" index="8351" value="1"/>
  <variable name="Y(52,53)" index="8518" value="1"/>
  <variable name="Y(53,54)" index="8685" value="1"/>
  <variable name="Y(54,55)" index="8852" value="1"/>
  <variable name="Y(55,56)" index="9019" value="1"/>
  <variable name="Y(56,57)" index="9186" value="1"/>
  <variable name="Y(57,58)" index="9353" value="1"/>
  <variable name="Y(58,59)" index="9520" value="1"/>
  <variable name="Y(59,60)" index="9687" value="1"/>
  <variable name="Y(60,61)" index="9854" value="1"/>
  <variable name="Y(61,62)" index="10021" value="1"/>
  <variable name="Y(62,63)" index="10188" value="1"/>
  <variable name="Y(63,64)" index="10355" value="1"/>
  <variable name="Y(64,65)" index="10522" value="1"/>
  <variable name="Y(65,66)" index="10689" value="1"/>
  <variable name="Y(66,67)" index="10856" value="1"/>
  <variable name="Y(67,68)" index="11023" value="1"/>
  <variable name="Y(68,69)" index="11190" value="1"/>
  <variable name="Y(69,70)" index="11357" value="1"/>
  <variable name="Y(70,71)" index="11524" value="1"/>
  <variable name="Y(71,72)" index="11691" value="1"/>
  <variable name="Y(72,73)" index="11858" value="1"/>
  <variable name="Y(73,74)" index="12025" value="1"/>
  <variable name="Y(74,75)" index="12192" value="1"/>
  <variable name="Y(75,76)" index="12359" value="1"/>
  <variable name="Y(76,77)" index="12526" value="1"/>
  <variable name="Y(77,78)" index="12693" value="1"/>
  <variable name="Y(78,79)" index="12860" value="1"/>
  <variable name="Y(79,80)" index="13027" value="1"/>
  <variable name="Y(80,81)" index="13194" value="1"/>
  <variable name="Y(81,82)" index="13361" value="1"/>
  <variable name="Y(82,83)" index="13528" value="1"/>
  <variable name="Y(83,1)" index="13612" value="1"/>
  <variable name="X(1,2,1)" index="1129796" value="1"/>
  <variable name="X(1,94,83)" index="1136684" value="1"/>
  <variable name="X(2,1,83)" index="1143490" value="1"/>
  <variable name="X(2,50,2)" index="1150215" value="1"/>
  <variable name="X(2,95,1)" index="1157020" value="1"/>
  <variable name="X(3,4,165)" index="1163990" value="1"/>
  <variable name="X(3,6,169)" index="1170800" value="1"/>
  <variable name="X(3,64,63)" index="1177500" value="1"/>
  <variable name="X(3,96,2)" index="1184245" value="1"/>
  <variable name="X(4,3,2)" index="1191051" value="1"/>
  <variable name="X(4,5,165)" index="1198020" value="1"/>
  <variable name="X(4,97,3)" index="1204664" value="1"/>
  <variable name="X(5,4,2)" index="1211469" value="1"/>
  <variable name="X(5,6,5)" index="1218278" value="1"/>
  <variable name="X(5,13,173)" index="1225252" value="1"/>
  <variable name="X(5,44,165)" index="1232050" value="1"/>
  <variable name="X(5,70,64)" index="1238755" value="1"/>
  <variable name="X(5,98,4)" index="1245501" value="1"/>
  <variable name="X(6,3,413)" index="1252716" value="1"/>
  <variable name="X(6,5,411)" index="1259520" value="1"/>
  <variable name="X(6,99,5)" index="1265920" value="1"/>
  <variable name="X(7,50,493)" index="1273214" value="1"/>
  <variable name="X(7,100,6)" index="1279533" value="1"/>
  <variable name="X(8,12,575)" index="1286908" value="1"/>
  <variable name="X(8,101,7)" index="1293146" value="1"/>
  <variable name="X(9,50,657)" index="1300602" value="1"/>
  <variable name="X(9,102,8)" index="1306759" value="1"/>
  <variable name="X(10,11,739)" index="1314296" value="1"/>
  <variable name="X(10,13,741)" index="1321104" value="1"/>
  <variable name="X(10,103,9)" index="1327178" value="1"/>
  <variable name="X(11,10,9)" index="1333984" value="1"/>
  <variable name="X(11,13,12)" index="1340793" value="1"/>
  <variable name="X(11,46,209)" index="1347796" value="1"/>
  <variable name="X(11,104,10)" index="1354403" value="1"/>
  <variable name="X(12,8,7)" index="1361206" value="1"/>
  <variable name="X(12,30,29)" index="1368034" value="1"/>
  <variable name="X(12,49,575)" index="1375386" value="1"/>
  <variable name="X(12,105,11)" index="1381628" value="1"/>
  <variable name="X(13,5,741)" index="1389164" value="1"/>
  <variable name="X(13,10,173)" index="1395402" value="1"/>
  <variable name="X(13,11,174)" index="1402209" value="1"/>
  <variable name="X(13,106,12)" index="1408853" value="1"/>
  <variable name="X(14,24,1067)" index="1416714" value="1"/>
  <variable name="X(14,31,30)" index="1422483" value="1"/>
  <variable name="X(14,68,31)" index="1429290" value="1"/>
  <variable name="X(14,107,13)" index="1436078" value="1"/>
  <variable name="X(15,42,1107)" index="1443978" value="1"/>
  <variable name="X(15,51,1149)" index="1450826" value="1"/>
  <variable name="X(15,108,14)" index="1456497" value="1"/>
  <variable name="X(16,17,16)" index="1463305" value="1"/>
  <variable name="X(16,18,17)" index="1470112" value="1"/>
  <variable name="X(16,20,1085)" index="1477986" value="1"/>
  <variable name="X(16,109,15)" index="1483722" value="1"/>
  <variable name="X(17,16,1081)" index="1491594" value="1"/>
  <variable name="X(17,22,21)" index="1497340" value="1"/>
  <variable name="X(17,110,16)" index="1504141" value="1"/>
  <variable name="X(18,16,1395)" index="1512326" value="1"/>
  <variable name="X(18,19,1084)" index="1518821" value="1"/>
  <variable name="X(18,75,65)" index="1524608" value="1"/>
  <variable name="X(18,111,17)" index="1531366" value="1"/>
  <variable name="X(19,18,1490)" index="1539645" value="1"/>
  <variable name="X(19,23,1088)" index="1546049" value="1"/>
  <variable name="X(19,112,18)" index="1551785" value="1"/>
  <variable name="X(20,16,15)" index="1558588" value="1"/>
  <variable name="X(20,21,1086)" index="1566465" value="1"/>
  <variable name="X(20,113,19)" index="1572204" value="1"/>
  <variable name="X(21,20,15)" index="1579006" value="1"/>
  <variable name="X(21,23,18)" index="1585815" value="1"/>
  <variable name="X(21,50,1232)" index="1593835" value="1"/>
  <variable name="X(21,114,20)" index="1599429" value="1"/>
  <variable name="X(22,17,1081)" index="1607296" value="1"/>
  <variable name="X(22,79,75)" index="1613096" value="1"/>
  <variable name="X(22,115,21)" index="1619848" value="1"/>
  <variable name="X(23,19,18)" index="1626651" value="1"/>
  <variable name="X(23,21,1477)" index="1634916" value="1"/>
  <variable name="X(23,116,22)" index="1640267" value="1"/>
  <variable name="X(24,14,13)" index="1647064" value="1"/>
  <variable name="X(24,25,24)" index="1653881" value="1"/>
  <variable name="X(24,26,25)" index="1660688" value="1"/>
  <variable name="X(24,34,33)" index="1667502" value="1"/>
  <variable name="X(24,35,198)" index="1674473" value="1"/>
  <variable name="X(24,57,1067)" index="1682148" value="1"/>
  <variable name="X(24,76,977)" index="1688864" value="1"/>
  <variable name="X(24,117,23)" index="1694716" value="1"/>
  <variable name="X(25,24,1969)" index="1703468" value="1"/>
  <variable name="X(25,69,68)" index="1708373" value="1"/>
  <variable name="X(25,118,24)" index="1715135" value="1"/>
  <variable name="X(26,24,2051)" index="1723968" value="1"/>
  <variable name="X(26,119,25)" index="1728748" value="1"/>
  <variable name="X(27,57,23)" index="1735552" value="1"/>
  <variable name="X(27,58,34)" index="1742369" value="1"/>
  <variable name="X(27,59,1068)" index="1750209" value="1"/>
  <variable name="X(27,60,59)" index="1756006" value="1"/>
  <variable name="X(27,62,61)" index="1762814" value="1"/>
  <variable name="X(27,120,26)" index="1769585" value="1"/>
  <variable name="X(28,51,2215)" index="1778580" value="1"/>
  <variable name="X(28,121,27)" index="1783198" value="1"/>
  <variable name="X(29,37,36)" index="1790013" value="1"/>
  <variable name="X(29,51,1068)" index="1797851" value="1"/>
  <variable name="X(29,59,23)" index="1803612" value="1"/>
  <variable name="X(29,122,28)" index="1810423" value="1"/>
  <variable name="X(30,12,2379)" index="1819580" value="1"/>
  <variable name="X(30,123,29)" index="1824036" value="1"/>
  <variable name="X(31,14,2461)" index="1833274" value="1"/>
  <variable name="X(31,124,30)" index="1837649" value="1"/>
  <variable name="X(32,33,2543)" index="1846968" value="1"/>
  <variable name="X(32,125,31)" index="1851262" value="1"/>
  <variable name="X(33,32,31)" index="1858068" value="1"/>
  <variable name="X(33,68,2543)" index="1867386" value="1"/>
  <variable name="X(33,126,32)" index="1871681" value="1"/>
  <variable name="X(34,24,2707)" index="1881162" value="1"/>
  <variable name="X(34,127,33)" index="1885294" value="1"/>
  <variable name="X(35,24,2791)" index="1894858" value="1"/>
  <variable name="X(35,58,221)" index="1899094" value="1"/>
  <variable name="X(35,128,34)" index="1905713" value="1"/>
  <variable name="X(36,37,2884)" index="1915369" value="1"/>
  <variable name="X(36,53,2871)" index="1922162" value="1"/>
  <variable name="X(36,56,55)" index="1926152" value="1"/>
  <variable name="X(36,129,35)" index="1932938" value="1"/>
  <variable name="X(37,29,2884)" index="1942593" value="1"/>
  <variable name="X(37,36,1101)" index="1947616" value="1"/>
  <variable name="X(37,54,53)" index="1953374" value="1"/>
  <variable name="X(37,130,36)" index="1960163" value="1"/>
  <variable name="X(38,43,42)" index="1966975" value="1"/>
  <variable name="X(38,49,3035)" index="1976774" value="1"/>
  <variable name="X(38,131,37)" index="1980582" value="1"/>
  <variable name="X(39,41,39)" index="1987390" value="1"/>
  <variable name="X(39,45,3)" index="1994160" value="1"/>
  <variable name="X(39,49,166)" index="2001129" value="1"/>
  <variable name="X(39,132,38)" index="2007807" value="1"/>
  <variable name="X(40,41,3199)" index="2017774" value="1"/>
  <variable name="X(40,133,39)" index="2021420" value="1"/>
  <variable name="X(41,39,776)" index="2028963" value="1"/>
  <variable name="X(41,40,39)" index="2035032" value="1"/>
  <variable name="X(41,46,3126)" index="2044925" value="1"/>
  <variable name="X(41,134,40)" index="2048645" value="1"/>
  <variable name="X(42,15,14)" index="2055425" value="1"/>
  <variable name="X(42,52,3363)" index="2065580" value="1"/>
  <variable name="X(42,135,41)" index="2069064" value="1"/>
  <variable name="X(43,38,3445)" index="2079274" value="1"/>
  <variable name="X(43,136,42)" index="2082677" value="1"/>
  <variable name="X(44,5,2)" index="2089443" value="1"/>
  <variable name="X(44,45,165)" index="2096412" value="1"/>
  <variable name="X(44,137,43)" index="2103096" value="1"/>
  <variable name="X(45,39,166)" index="2110025" value="1"/>
  <variable name="X(45,44,2)" index="2116667" value="1"/>
  <variable name="X(45,138,44)" index="2123515" value="1"/>
  <variable name="X(46,11,9)" index="2130286" value="1"/>
  <variable name="X(46,41,776)" index="2137859" value="1"/>
  <variable name="X(46,47,46)" index="2143935" value="1"/>
  <variable name="X(46,49,739)" index="2151434" value="1"/>
  <variable name="X(46,139,45)" index="2157546" value="1"/>
  <variable name="X(47,46,3773)" index="2168080" value="1"/>
  <variable name="X(47,140,46)" index="2171159" value="1"/>
  <variable name="X(48,55,3908)" index="2181827" value="1"/>
  <variable name="X(48,61,3855)" index="2188580" value="1"/>
  <variable name="X(48,141,47)" index="2191578" value="1"/>
  <variable name="X(49,12,7)" index="2198344" value="1"/>
  <variable name="X(49,38,37)" index="2205180" value="1"/>
  <variable name="X(49,39,3)" index="2211952" value="1"/>
  <variable name="X(49,46,9)" index="2218764" value="1"/>
  <variable name="X(49,50,165)" index="2225726" value="1"/>
  <variable name="X(49,52,190)" index="2232557" value="1"/>
  <variable name="X(49,142,48)" index="2239221" value="1"/>
  <variable name="X(50,2,165)" index="2246144" value="1"/>
  <variable name="X(50,7,6)" index="2252791" value="1"/>
  <variable name="X(50,9,8)" index="2259599" value="1"/>
  <variable name="X(50,21,16)" index="2266413" value="1"/>
  <variable name="X(50,49,2)" index="2273205" value="1"/>
  <variable name="X(50,52,13)" index="2280022" value="1"/>
  <variable name="X(50,143,49)" index="2286864" value="1"/>
  <variable name="X(51,15,1080)" index="2294701" value="1"/>
  <variable name="X(51,28,27)" index="2300454" value="1"/>
  <variable name="X(51,29,23)" index="2307256" value="1"/>
  <variable name="X(51,52,1068)" index="2315107" value="1"/>
  <variable name="X(51,53,35)" index="2320880" value="1"/>
  <variable name="X(51,55,54)" index="2327705" value="1"/>
  <variable name="X(51,61,47)" index="2334504" value="1"/>
  <variable name="X(51,144,50)" index="2341313" value="1"/>
  <variable name="X(52,42,14)" index="2348083" value="1"/>
  <variable name="X(52,49,1076)" index="2355951" value="1"/>
  <variable name="X(52,50,1067)" index="2362748" value="1"/>
  <variable name="X(52,51,23)" index="2368510" value="1"/>
  <variable name="X(52,145,51)" index="2375344" value="1"/>
  <variable name="X(53,36,35)" index="2382134" value="1"/>
  <variable name="X(53,51,2871)" index="2391776" value="1"/>
  <variable name="X(53,146,52)" index="2395763" value="1"/>
  <variable name="X(54,37,4347)" index="2406864" value="1"/>
  <variable name="X(54,147,53)" index="2409376" value="1"/>
  <variable name="X(55,48,4476)" index="2420605" value="1"/>
  <variable name="X(55,51,4429)" index="2427364" value="1"/>
  <variable name="X(55,148,54)" index="2429795" value="1"/>
  <variable name="X(56,36,4511)" index="2441058" value="1"/>
  <variable name="X(56,149,55)" index="2443408" value="1"/>
  <variable name="X(57,24,23)" index="2450182" value="1"/>
  <variable name="X(57,27,1068)" index="2458033" value="1"/>
  <variable name="X(57,150,56)" index="2463827" value="1"/>
  <variable name="X(58,27,2789)" index="2473366" value="1"/>
  <variable name="X(58,35,34)" index="2477417" value="1"/>
  <variable name="X(58,151,57)" index="2484246" value="1"/>
  <variable name="X(59,27,23)" index="2491018" value="1"/>
  <variable name="X(59,29,1068)" index="2498869" value="1"/>
  <variable name="X(59,152,58)" index="2504665" value="1"/>
  <variable name="X(60,27,4839)" index="2516252" value="1"/>
  <variable name="X(60,153,59)" index="2518278" value="1"/>
  <variable name="X(61,48,47)" index="2525072" value="1"/>
  <variable name="X(61,51,3855)" index="2535686" value="1"/>
  <variable name="X(61,63,62)" index="2538699" value="1"/>
  <variable name="X(61,154,60)" index="2545503" value="1"/>
  <variable name="X(62,27,5003)" index="2557252" value="1"/>
  <variable name="X(62,155,61)" index="2559116" value="1"/>
  <variable name="X(63,61,5085)" index="2570946" value="1"/>
  <variable name="X(63,156,62)" index="2572729" value="1"/>
  <variable name="X(64,3,1069)" index="2580542" value="1"/>
  <variable name="X(64,65,177)" index="2586456" value="1"/>
  <variable name="X(64,157,63)" index="2593148" value="1"/>
  <variable name="X(65,64,1069)" index="2600960" value="1"/>
  <variable name="X(65,71,177)" index="2606874" value="1"/>
  <variable name="X(65,158,64)" index="2613567" value="1"/>
  <variable name="X(66,72,1069)" index="2621378" value="1"/>
  <variable name="X(66,81,177)" index="2627292" value="1"/>
  <variable name="X(66,159,65)" index="2633986" value="1"/>
  <variable name="X(67,73,1138)" index="2641865" value="1"/>
  <variable name="X(67,81,5413)" index="2652946" value="1"/>
  <variable name="X(67,160,66)" index="2654405" value="1"/>
  <variable name="X(68,14,2543)" index="2663688" value="1"/>
  <variable name="X(68,33,31)" index="2667982" value="1"/>
  <variable name="X(68,69,1134)" index="2675891" value="1"/>
  <variable name="X(68,161,67)" index="2681630" value="1"/>
  <variable name="X(69,25,2567)" index="2690936" value="1"/>
  <variable name="X(69,68,1999)" index="2697174" value="1"/>
  <variable name="X(69,162,68)" index="2702049" value="1"/>
  <variable name="X(70,5,1070)" index="2709857" value="1"/>
  <variable name="X(70,71,64)" index="2715657" value="1"/>
  <variable name="X(70,163,69)" index="2722468" value="1"/>
  <variable name="X(71,65,64)" index="2729269" value="1"/>
  <variable name="X(71,70,1070)" index="2737081" value="1"/>
  <variable name="X(71,72,71)" index="2742888" value="1"/>
  <variable name="X(71,73,72)" index="2749695" value="1"/>
  <variable name="X(71,164,70)" index="2756499" value="1"/>
  <variable name="X(72,66,177)" index="2763412" value="1"/>
  <variable name="X(72,71,1069)" index="2771110" value="1"/>
  <variable name="X(72,165,71)" index="2776918" value="1"/>
  <variable name="X(73,67,230)" index="2783883" value="1"/>
  <variable name="X(73,71,5415)" index="2795874" value="1"/>
  <variable name="X(73,166,72)" index="2797337" value="1"/>
  <variable name="X(74,75,181)" index="2804252" value="1"/>
  <variable name="X(74,78,65)" index="2810942" value="1"/>
  <variable name="X(74,167,73)" index="2817756" value="1"/>
  <variable name="X(75,18,181)" index="2824670" value="1"/>
  <variable name="X(75,74,65)" index="2831360" value="1"/>
  <variable name="X(75,168,74)" index="2838175" value="1"/>
  <variable name="X(76,24,187)" index="2845094" value="1"/>
  <variable name="X(76,77,1070)" index="2852783" value="1"/>
  <variable name="X(76,80,185)" index="2858704" value="1"/>
  <variable name="X(76,169,75)" index="2865400" value="1"/>
  <variable name="X(77,76,185)" index="2872316" value="1"/>
  <variable name="X(77,78,1070)" index="2880007" value="1"/>
  <variable name="X(77,170,76)" index="2885819" value="1"/>
  <variable name="X(78,74,181)" index="2892730" value="1"/>
  <variable name="X(78,77,158)" index="2899513" value="1"/>
  <variable name="X(78,81,66)" index="2906227" value="1"/>
  <variable name="X(78,83,82)" index="2913049" value="1"/>
  <variable name="X(78,171,77)" index="2919850" value="1"/>
  <variable name="X(79,22,185)" index="2926764" value="1"/>
  <variable name="X(79,80,75)" index="2933460" value="1"/>
  <variable name="X(79,172,78)" index="2940269" value="1"/>
  <variable name="X(80,76,75)" index="2947072" value="1"/>
  <variable name="X(80,79,185)" index="2953988" value="1"/>
  <variable name="X(80,173,79)" index="2960688" value="1"/>
  <variable name="X(81,66,65)" index="2967480" value="1"/>
  <variable name="X(81,67,66)" index="2974287" value="1"/>
  <variable name="X(81,78,181)" index="2981208" value="1"/>
  <variable name="X(81,82,81)" index="2987914" value="1"/>
  <variable name="X(81,174,80)" index="2994719" value="1"/>
  <variable name="X(82,81,6643)" index="3008088" value="1"/>
  <variable name="X(82,83,6724)" index="3014975" value="1"/>
  <variable name="X(82,175,81)" index="3015138" value="1"/>
  <variable name="X(83,78,6725)" index="3028588" value="1"/>
  <variable name="X(83,82,6806)" index="3035475" value="1"/>
  <variable name="X(83,176,82)" index="3035557" value="1"/>
 </variables>
</CPLEXSolution>
